100 10
251 479
682 589
557 510
774 243
458 531
740 243
544 143
925 598
511 791
559 699
146 667
265 621
527 318
255 588
555 478
97 584
177 777
237 253
337 797
412 671
535 658
597 422
466 459
840 531
576 155
406 734
573 730
212 645
560 432
610 347
490 523
775 221
565 435
585 527
770 475
640 644
142 775
569 277
562 269
492 451
361 606
919 749
634 729
689 620
812 756
222 581
326 638
845 762
433 241
969 694
853 178
574 451
683 576
330 680
909 299
431 360
833 202
422 741
551 607
414 743
814 190
948 734
532 631
722 433
594 85
217 792
765 426
627 658
685 764
947 434
804 611
225 781
689 369
574 814
226 445
469 288
730 435
471 292
166 465
673 396
597 513
565 656
699 487
754 664
260 542
860 729
218 341
859 432
661 494
596 364
612 759
584 309
742 313
719 298
496 707
262 536
365 654
841 51
225 368
661 175
